   H2O
0.52918   ! scaling parameter
 12 0 0
 0 12 0
 0 0 12
1 2
select
cart
     0.00     0.00     0.00 F F F  ! O
     1.10    -1.43     0.00 T T F  ! H
     1.10     1.43     0.00 T T F  ! H
